<?xml version="1.0" encoding="utf-8" standalone="yes"?>
<SchedulingPeriod ID="TOY2" xmlns:xsi="http://www.w3.org/2001/XMLSchema-instance" xsi:noNamespaceSchemaLocation="competition.xsd">
  <StartDate>2010-01-01</StartDate>
  <EndDate>2010-01-28</EndDate>
  <Skills>
    <Skill>Nurse</Skill>
  </Skills>
  <ShiftTypes>
    <Shift ID="E">
      <StartTime>06:30:00</StartTime>
      <EndTime>14:30:00</EndTime>
      <Description>Early</Description>
      <Skills>
        <Skill>Nurse</Skill>
      </Skills>
    </Shift>
    <Shift ID="L">
      <StartTime>14:30:00</StartTime>
      <EndTime>22:30:00</EndTime>
      <Description>Late</Description>
      <Skills>
        <Skill>Nurse</Skill>
      </Skills>
    </Shift>
    <Shift ID="D">
      <StartTime>08:30:00</StartTime>
      <EndTime>16:30:00</EndTime>
      <Description>Day shift</Description>
      <Skills>
        <Skill>Nurse</Skill>
      </Skills>
    </Shift>
  </ShiftTypes>
  <Patterns>
    <Pattern ID="0" weight="1">
      <PatternEntries>
        <PatternEntry index="0">
          <ShiftType>L</ShiftType>
          <Day>Any</Day>
        </PatternEntry>
        <PatternEntry index="1">
          <ShiftType>D</ShiftType>
          <Day>Any</Day>
        </PatternEntry>
      </PatternEntries>
    </Pattern>
    <Pattern ID="1" weight="1">
      <PatternEntries>
        <PatternEntry index="0">
          <ShiftType>D</ShiftType>
          <Day>Any</Day>
        </PatternEntry>
        <PatternEntry index="1">
          <ShiftType>E</ShiftType>
          <Day>Any</Day>
        </PatternEntry>
        <PatternEntry index="2">
          <ShiftType>D</ShiftType>
          <Day>Any</Day>
        </PatternEntry>
      </PatternEntries>
    </Pattern>
    <Pattern ID="2" weight="1">
      <PatternEntries>
        <PatternEntry index="0">
          <ShiftType>None</ShiftType>
          <Day>Friday</Day>
        </PatternEntry>
        <PatternEntry index="1">
          <ShiftType>Any</ShiftType>
          <Day>Saturday</Day>
        </PatternEntry>
        <PatternEntry index="2">
          <ShiftType>Any</ShiftType>
          <Day>Sunday</Day>
        </PatternEntry>
      </PatternEntries>
    </Pattern>
  </Patterns>
  <Contracts>
    <Contract ID="0">
      <Description>fulltime</Description>
      <SingleAssignmentPerDay weight="1">true</SingleAssignmentPerDay>
      <MaxNumAssignments on="1" weight="1">10</MaxNumAssignments>
      <MinNumAssignments on="1" weight="1">6</MinNumAssignments>
      <MaxConsecutiveWorkingDays on="1" weight="1">7</MaxConsecutiveWorkingDays>
      <MinConsecutiveWorkingDays on="1" weight="1">2</MinConsecutiveWorkingDays>
      <MaxConsecutiveFreeDays on="1" weight="1">7</MaxConsecutiveFreeDays>
      <MinConsecutiveFreeDays on="1" weight="1">1</MinConsecutiveFreeDays>
      <MaxConsecutiveWorkingWeekends on="0" weight="0">7</MaxConsecutiveWorkingWeekends>
      <MinConsecutiveWorkingWeekends on="0" weight="0">2</MinConsecutiveWorkingWeekends>
      <MaxWorkingWeekendsInFourWeeks on="0" weight="0">0</MaxWorkingWeekendsInFourWeeks>
      <WeekendDefinition>SaturdaySunday</WeekendDefinition>
      <CompleteWeekends weight="1">true</CompleteWeekends>
      <IdenticalShiftTypesDuringWeekend weight="1">true</IdenticalShiftTypesDuringWeekend>
      <NoNightShiftBeforeFreeWeekend weight="0">false</NoNightShiftBeforeFreeWeekend>
      <AlternativeSkillCategory weight="0">false</AlternativeSkillCategory>
      <UnwantedPatterns>
        <Pattern>0</Pattern>
        <Pattern>1</Pattern>
        <Pattern>2</Pattern>
      </UnwantedPatterns>
    </Contract>
    <Contract ID="1">
      <Description>50_percent</Description>
      <SingleAssignmentPerDay weight="1">true</SingleAssignmentPerDay>
      <MaxNumAssignments on="1" weight="1">5</MaxNumAssignments>
      <MinNumAssignments on="1" weight="1">3</MinNumAssignments>
      <MaxConsecutiveWorkingDays on="1" weight="1">4</MaxConsecutiveWorkingDays>
      <MinConsecutiveWorkingDays on="1" weight="1">2</MinConsecutiveWorkingDays>
      <MaxConsecutiveFreeDays on="1" weight="1">7</MaxConsecutiveFreeDays>
      <MinConsecutiveFreeDays on="1" weight="1">1</MinConsecutiveFreeDays>
      <MaxConsecutiveWorkingWeekends on="0" weight="0">4</MaxConsecutiveWorkingWeekends>
      <MinConsecutiveWorkingWeekends on="0" weight="0">2</MinConsecutiveWorkingWeekends>
      <MaxWorkingWeekendsInFourWeeks on="0" weight="0">0</MaxWorkingWeekendsInFourWeeks>
      <WeekendDefinition>SaturdaySunday</WeekendDefinition>
      <CompleteWeekends weight="1">true</CompleteWeekends>
      <IdenticalShiftTypesDuringWeekend weight="1">true</IdenticalShiftTypesDuringWeekend>
      <NoNightShiftBeforeFreeWeekend weight="0">false</NoNightShiftBeforeFreeWeekend>
      <AlternativeSkillCategory weight="0">false</AlternativeSkillCategory>
      <UnwantedPatterns>
        <Pattern>0</Pattern>
        <Pattern>1</Pattern>
        <Pattern>2</Pattern>
      </UnwantedPatterns>
    </Contract>
  </Contracts>
  <Employees>
    <Employee ID="0">
      <ContractID>0</ContractID>
      <Name>0</Name>
      <Skills>
        <Skill>Nurse</Skill>
      </Skills>
    </Employee>
    <Employee ID="1">
      <ContractID>0</ContractID>
      <Name>1</Name>
      <Skills>
        <Skill>Nurse</Skill>
      </Skills>
    </Employee>
    <Employee ID="2">
      <ContractID>0</ContractID>
      <Name>2</Name>
      <Skills>
        <Skill>Nurse</Skill>
      </Skills>
    </Employee>
    <Employee ID="3">
      <ContractID>0</ContractID>
      <Name>3</Name>
      <Skills>
        <Skill>Nurse</Skill>
      </Skills>
    </Employee>
    <Employee ID="4">
      <ContractID>0</ContractID>
      <Name>4</Name>
      <Skills>
        <Skill>Nurse</Skill>
      </Skills>
    </Employee>
    <Employee ID="5">
      <ContractID>0</ContractID>
      <Name>5</Name>
      <Skills>
        <Skill>Nurse</Skill>
      </Skills>
    </Employee>
    <Employee ID="6">
      <ContractID>0</ContractID>
      <Name>6</Name>
      <Skills>
        <Skill>Nurse</Skill>
      </Skills>
    </Employee>
    <Employee ID="7">
      <ContractID>0</ContractID>
      <Name>7</Name>
      <Skills>
        <Skill>Nurse</Skill>
      </Skills>
    </Employee>
    <Employee ID="8">
      <ContractID>0</ContractID>
      <Name>8</Name>
      <Skills>
        <Skill>Nurse</Skill>
      </Skills>
    </Employee>
    <Employee ID="9">
      <ContractID>0</ContractID>
      <Name>9</Name>
      <Skills>
        <Skill>Nurse</Skill>
      </Skills>
    </Employee>
    <Employee ID="10">
      <ContractID>1</ContractID>
      <Name>10</Name>
      <Skills>
        <Skill>Nurse</Skill>
      </Skills>
    </Employee>
    <Employee ID="11">
      <ContractID>1</ContractID>
      <Name>11</Name>
      <Skills>
        <Skill>Nurse</Skill>
      </Skills>
    </Employee>
    <Employee ID="12">
      <ContractID>1</ContractID>
      <Name>12</Name>
      <Skills>
        <Skill>Nurse</Skill>
      </Skills>
    </Employee>
    <Employee ID="13">
      <ContractID>1</ContractID>
      <Name>13</Name>
      <Skills>
        <Skill>Nurse</Skill>
      </Skills>
    </Employee>
    <Employee ID="14">
      <ContractID>1</ContractID>
      <Name>14</Name>
      <Skills>
        <Skill>Nurse</Skill>
      </Skills>
    </Employee>
    <Employee ID="15">
      <ContractID>1</ContractID>
      <Name>15</Name>
      <Skills>
        <Skill>Nurse</Skill>
      </Skills>
    </Employee>
    <Employee ID="16">
      <ContractID>1</ContractID>
      <Name>16</Name>
      <Skills>
        <Skill>Nurse</Skill>
      </Skills>
    </Employee>
    <Employee ID="17">
      <ContractID>1</ContractID>
      <Name>17</Name>
      <Skills>
        <Skill>Nurse</Skill>
      </Skills>
    </Employee>
    <Employee ID="18">
      <ContractID>1</ContractID>
      <Name>18</Name>
      <Skills>
        <Skill>Nurse</Skill>
      </Skills>
    </Employee>
    <Employee ID="19">
      <ContractID>1</ContractID>
      <Name>19</Name>
      <Skills>
        <Skill>Nurse</Skill>
      </Skills>
    </Employee>
  </Employees>
  <CoverRequirements>
    <DayOfWeekCover>
      <Day>Monday</Day>
      <Cover>
        <Skill>Nurse</Skill>
        <Shift>E</Shift>
        <Preferred>3</Preferred>
      </Cover>
      <Cover>
        <Skill>Nurse</Skill>
        <Shift>L</Shift>
        <Preferred>3</Preferred>
      </Cover>
      <Cover>
        <Skill>Nurse</Skill>
        <Shift>D</Shift>
        <Preferred>1</Preferred>
      </Cover>
    </DayOfWeekCover>
    <DayOfWeekCover>
      <Day>Tuesday</Day>
      <Cover>
        <Skill>Nurse</Skill>
        <Shift>E</Shift>
        <Preferred>3</Preferred>
      </Cover>
      <Cover>
        <Skill>Nurse</Skill>
        <Shift>L</Shift>
        <Preferred>3</Preferred>
      </Cover>
      <Cover>
        <Skill>Nurse</Skill>
        <Shift>D</Shift>
        <Preferred>1</Preferred>
      </Cover>
    </DayOfWeekCover>
    <DayOfWeekCover>
      <Day>Wednesday</Day>
      <Cover>
        <Skill>Nurse</Skill>
        <Shift>E</Shift>
        <Preferred>3</Preferred>
      </Cover>
      <Cover>
        <Skill>Nurse</Skill>
        <Shift>L</Shift>
        <Preferred>3</Preferred>
      </Cover>
      <Cover>
        <Skill>Nurse</Skill>
        <Shift>D</Shift>
        <Preferred>1</Preferred>
      </Cover>
    </DayOfWeekCover>
    <DayOfWeekCover>
      <Day>Thursday</Day>
      <Cover>
        <Skill>Nurse</Skill>
        <Shift>E</Shift>
        <Preferred>3</Preferred>
      </Cover>
      <Cover>
        <Skill>Nurse</Skill>
        <Shift>L</Shift>
        <Preferred>3</Preferred>
      </Cover>
      <Cover>
        <Skill>Nurse</Skill>
        <Shift>D</Shift>
        <Preferred>1</Preferred>
      </Cover>
    </DayOfWeekCover>
    <DayOfWeekCover>
      <Day>Friday</Day>
      <Cover>
        <Skill>Nurse</Skill>
        <Shift>E</Shift>
        <Preferred>3</Preferred>
      </Cover>
      <Cover>
        <Skill>Nurse</Skill>
        <Shift>L</Shift>
        <Preferred>3</Preferred>
      </Cover>
      <Cover>
        <Skill>Nurse</Skill>
        <Shift>D</Shift>
        <Preferred>1</Preferred>
      </Cover>
    </DayOfWeekCover>
    <DayOfWeekCover>
      <Day>Saturday</Day>
      <Cover>
        <Skill>Nurse</Skill>
        <Shift>E</Shift>
        <Preferred>2</Preferred>
      </Cover>
      <Cover>
        <Skill>Nurse</Skill>
        <Shift>L</Shift>
        <Preferred>2</Preferred>
      </Cover>
      <Cover>
        <Skill>Nurse</Skill>
        <Shift>D</Shift>
        <Preferred>1</Preferred>
      </Cover>
    </DayOfWeekCover>
    <DayOfWeekCover>
      <Day>Sunday</Day>
      <Cover>
        <Skill>Nurse</Skill>
        <Shift>E</Shift>
        <Preferred>2</Preferred>
      </Cover>
      <Cover>
        <Skill>Nurse</Skill>
        <Shift>L</Shift>
        <Preferred>2</Preferred>
      </Cover>
      <Cover>
        <Skill>Nurse</Skill>
        <Shift>D</Shift>
        <Preferred>1</Preferred>
      </Cover>
    </DayOfWeekCover>
  </CoverRequirements>
  <DayOffRequests>
    <DayOff weight="1">
      <EmployeeID>0</EmployeeID>
      <Date>2010-01-09</Date>
    </DayOff>
    <DayOff weight="1">
      <EmployeeID>0</EmployeeID>
      <Date>2010-01-13</Date>
    </DayOff>
    <DayOff weight="1">
      <EmployeeID>0</EmployeeID>
      <Date>2010-01-27</Date>
    </DayOff>
    <DayOff weight="1">
      <EmployeeID>0</EmployeeID>
      <Date>2010-01-14</Date>
    </DayOff>
    <DayOff weight="1">
      <EmployeeID>0</EmployeeID>
      <Date>2010-01-06</Date>
    </DayOff>
    <DayOff weight="1">
      <EmployeeID>1</EmployeeID>
      <Date>2010-01-15</Date>
    </DayOff>
    <DayOff weight="1">
      <EmployeeID>1</EmployeeID>
      <Date>2010-01-24</Date>
    </DayOff>
    <DayOff weight="1">
      <EmployeeID>1</EmployeeID>
      <Date>2010-01-19</Date>
    </DayOff>
    <DayOff weight="1">
      <EmployeeID>1</EmployeeID>
      <Date>2010-01-23</Date>
    </DayOff>
    <DayOff weight="1">
      <EmployeeID>1</EmployeeID>
      <Date>2010-01-05</Date>
    </DayOff>
    <DayOff weight="1">
      <EmployeeID>2</EmployeeID>
      <Date>2010-01-28</Date>
    </DayOff>
    <DayOff weight="1">
      <EmployeeID>2</EmployeeID>
      <Date>2010-01-17</Date>
    </DayOff>
    <DayOff weight="1">
      <EmployeeID>2</EmployeeID>
      <Date>2010-01-04</Date>
    </DayOff>
    <DayOff weight="1">
      <EmployeeID>2</EmployeeID>
      <Date>2010-01-08</Date>
    </DayOff>
    <DayOff weight="1">
      <EmployeeID>2</EmployeeID>
      <Date>2010-01-06</Date>
    </DayOff>
    <DayOff weight="1">
      <EmployeeID>3</EmployeeID>
      <Date>2010-01-04</Date>
    </DayOff>
    <DayOff weight="1">
      <EmployeeID>3</EmployeeID>
      <Date>2010-01-11</Date>
    </DayOff>
    <DayOff weight="1">
      <EmployeeID>3</EmployeeID>
      <Date>2010-01-24</Date>
    </DayOff>
    <DayOff weight="1">
      <EmployeeID>3</EmployeeID>
      <Date>2010-01-27</Date>
    </DayOff>
    <DayOff weight="1">
      <EmployeeID>3</EmployeeID>
      <Date>2010-01-01</Date>
    </DayOff>
    <DayOff weight="1">
      <EmployeeID>4</EmployeeID>
      <Date>2010-01-24</Date>
    </DayOff>
    <DayOff weight="1">
      <EmployeeID>4</EmployeeID>
      <Date>2010-01-15</Date>
    </DayOff>
    <DayOff weight="1">
      <EmployeeID>4</EmployeeID>
      <Date>2010-01-10</Date>
    </DayOff>
    <DayOff weight="1">
      <EmployeeID>4</EmployeeID>
      <Date>2010-01-10</Date>
    </DayOff>
    <DayOff weight="1">
      <EmployeeID>4</EmployeeID>
      <Date>2010-01-04</Date>
    </DayOff>
    <DayOff weight="1">
      <EmployeeID>5</EmployeeID>
      <Date>2010-01-14</Date>
    </DayOff>
    <DayOff weight="1">
      <EmployeeID>5</EmployeeID>
      <Date>2010-01-10</Date>
    </DayOff>
    <DayOff weight="1">
      <EmployeeID>5</EmployeeID>
      <Date>2010-01-04</Date>
    </DayOff>
    <DayOff weight="1">
      <EmployeeID>5</EmployeeID>
      <Date>2010-01-02</Date>
    </DayOff>
    <DayOff weight="1">
      <EmployeeID>5</EmployeeID>
      <Date>2010-01-19</Date>
    </DayOff>
    <DayOff weight="1">
      <EmployeeID>6</EmployeeID>
      <Date>2010-01-26</Date>
    </DayOff>
    <DayOff weight="1">
      <EmployeeID>6</EmployeeID>
      <Date>2010-01-14</Date>
    </DayOff>
    <DayOff weight="1">
      <EmployeeID>6</EmployeeID>
      <Date>2010-01-19</Date>
    </DayOff>
    <DayOff weight="1">
      <EmployeeID>6</EmployeeID>
      <Date>2010-01-02</Date>
    </DayOff>
    <DayOff weight="1">
      <EmployeeID>6</EmployeeID>
      <Date>2010-01-04</Date>
    </DayOff>
    <DayOff weight="1">
      <EmployeeID>7</EmployeeID>
      <Date>2010-01-21</Date>
    </DayOff>
    <DayOff weight="1">
      <EmployeeID>7</EmployeeID>
      <Date>2010-01-11</Date>
    </DayOff>
    <DayOff weight="1">
      <EmployeeID>7</EmployeeID>
      <Date>2010-01-07</Date>
    </DayOff>
    <DayOff weight="1">
      <EmployeeID>7</EmployeeID>
      <Date>2010-01-15</Date>
    </DayOff>
    <DayOff weight="1">
      <EmployeeID>7</EmployeeID>
      <Date>2010-01-21</Date>
    </DayOff>
    <DayOff weight="1">
      <EmployeeID>8</EmployeeID>
      <Date>2010-01-20</Date>
    </DayOff>
    <DayOff weight="1">
      <EmployeeID>8</EmployeeID>
      <Date>2010-01-02</Date>
    </DayOff>
    <DayOff weight="1">
      <EmployeeID>8</EmployeeID>
      <Date>2010-01-07</Date>
    </DayOff>
    <DayOff weight="1">
      <EmployeeID>8</EmployeeID>
      <Date>2010-01-13</Date>
    </DayOff>
    <DayOff weight="1">
      <EmployeeID>8</EmployeeID>
      <Date>2010-01-23</Date>
    </DayOff>
    <DayOff weight="1">
      <EmployeeID>9</EmployeeID>
      <Date>2010-01-07</Date>
    </DayOff>
    <DayOff weight="1">
      <EmployeeID>9</EmployeeID>
      <Date>2010-01-28</Date>
    </DayOff>
    <DayOff weight="1">
      <EmployeeID>9</EmployeeID>
      <Date>2010-01-11</Date>
    </DayOff>
    <DayOff weight="1">
      <EmployeeID>9</EmployeeID>
      <Date>2010-01-04</Date>
    </DayOff>
    <DayOff weight="1">
      <EmployeeID>9</EmployeeID>
      <Date>2010-01-28</Date>
    </DayOff>
    <DayOff weight="1">
      <EmployeeID>10</EmployeeID>
      <Date>2010-01-06</Date>
    </DayOff>
    <DayOff weight="1">
      <EmployeeID>10</EmployeeID>
      <Date>2010-01-14</Date>
    </DayOff>
    <DayOff weight="1">
      <EmployeeID>10</EmployeeID>
      <Date>2010-01-21</Date>
    </DayOff>
    <DayOff weight="1">
      <EmployeeID>10</EmployeeID>
      <Date>2010-01-26</Date>
    </DayOff>
    <DayOff weight="1">
      <EmployeeID>10</EmployeeID>
      <Date>2010-01-01</Date>
    </DayOff>
    <DayOff weight="1">
      <EmployeeID>11</EmployeeID>
      <Date>2010-01-13</Date>
    </DayOff>
    <DayOff weight="1">
      <EmployeeID>11</EmployeeID>
      <Date>2010-01-09</Date>
    </DayOff>
    <DayOff weight="1">
      <EmployeeID>11</EmployeeID>
      <Date>2010-01-23</Date>
    </DayOff>
    <DayOff weight="1">
      <EmployeeID>11</EmployeeID>
      <Date>2010-01-28</Date>
    </DayOff>
    <DayOff weight="1">
      <EmployeeID>11</EmployeeID>
      <Date>2010-01-02</Date>
    </DayOff>
    <DayOff weight="1">
      <EmployeeID>12</EmployeeID>
      <Date>2010-01-10</Date>
    </DayOff>
    <DayOff weight="1">
      <EmployeeID>12</EmployeeID>
      <Date>2010-01-15</Date>
    </DayOff>
    <DayOff weight="1">
      <EmployeeID>12</EmployeeID>
      <Date>2010-01-16</Date>
    </DayOff>
    <DayOff weight="1">
      <EmployeeID>12</EmployeeID>
      <Date>2010-01-08</Date>
    </DayOff>
    <DayOff weight="1">
      <EmployeeID>12</EmployeeID>
      <Date>2010-01-25</Date>
    </DayOff>
    <DayOff weight="1">
      <EmployeeID>13</EmployeeID>
      <Date>2010-01-12</Date>
    </DayOff>
    <DayOff weight="1">
      <EmployeeID>13</EmployeeID>
      <Date>2010-01-06</Date>
    </DayOff>
    <DayOff weight="1">
      <EmployeeID>13</EmployeeID>
      <Date>2010-01-13</Date>
    </DayOff>
    <DayOff weight="1">
      <EmployeeID>13</EmployeeID>
      <Date>2010-01-25</Date>
    </DayOff>
    <DayOff weight="1">
      <EmployeeID>13</EmployeeID>
      <Date>2010-01-04</Date>
    </DayOff>
    <DayOff weight="1">
      <EmployeeID>14</EmployeeID>
      <Date>2010-01-05</Date>
    </DayOff>
    <DayOff weight="1">
      <EmployeeID>14</EmployeeID>
      <Date>2010-01-04</Date>
    </DayOff>
    <DayOff weight="1">
      <EmployeeID>14</EmployeeID>
      <Date>2010-01-27</Date>
    </DayOff>
    <DayOff weight="1">
      <EmployeeID>14</EmployeeID>
      <Date>2010-01-23</Date>
    </DayOff>
    <DayOff weight="1">
      <EmployeeID>14</EmployeeID>
      <Date>2010-01-28</Date>
    </DayOff>
    <DayOff weight="1">
      <EmployeeID>15</EmployeeID>
      <Date>2010-01-28</Date>
    </DayOff>
    <DayOff weight="1">
      <EmployeeID>15</EmployeeID>
      <Date>2010-01-28</Date>
    </DayOff>
    <DayOff weight="1">
      <EmployeeID>15</EmployeeID>
      <Date>2010-01-17</Date>
    </DayOff>
    <DayOff weight="1">
      <EmployeeID>15</EmployeeID>
      <Date>2010-01-19</Date>
    </DayOff>
    <DayOff weight="1">
      <EmployeeID>15</EmployeeID>
      <Date>2010-01-28</Date>
    </DayOff>
    <DayOff weight="1">
      <EmployeeID>16</EmployeeID>
      <Date>2010-01-23</Date>
    </DayOff>
    <DayOff weight="1">
      <EmployeeID>16</EmployeeID>
      <Date>2010-01-10</Date>
    </DayOff>
    <DayOff weight="1">
      <EmployeeID>16</EmployeeID>
      <Date>2010-01-26</Date>
    </DayOff>
    <DayOff weight="1">
      <EmployeeID>16</EmployeeID>
      <Date>2010-01-15</Date>
    </DayOff>
    <DayOff weight="1">
      <EmployeeID>16</EmployeeID>
      <Date>2010-01-27</Date>
    </DayOff>
    <DayOff weight="1">
      <EmployeeID>17</EmployeeID>
      <Date>2010-01-09</Date>
    </DayOff>
    <DayOff weight="1">
      <EmployeeID>17</EmployeeID>
      <Date>2010-01-11</Date>
    </DayOff>
    <DayOff weight="1">
      <EmployeeID>17</EmployeeID>
      <Date>2010-01-04</Date>
    </DayOff>
    <DayOff weight="1">
      <EmployeeID>17</EmployeeID>
      <Date>2010-01-03</Date>
    </DayOff>
    <DayOff weight="1">
      <EmployeeID>17</EmployeeID>
      <Date>2010-01-06</Date>
    </DayOff>
    <DayOff weight="1">
      <EmployeeID>18</EmployeeID>
      <Date>2010-01-12</Date>
    </DayOff>
    <DayOff weight="1">
      <EmployeeID>18</EmployeeID>
      <Date>2010-01-02</Date>
    </DayOff>
    <DayOff weight="1">
      <EmployeeID>18</EmployeeID>
      <Date>2010-01-18</Date>
    </DayOff>
    <DayOff weight="1">
      <EmployeeID>18</EmployeeID>
      <Date>2010-01-18</Date>
    </DayOff>
    <DayOff weight="1">
      <EmployeeID>18</EmployeeID>
      <Date>2010-01-09</Date>
    </DayOff>
    <DayOff weight="1">
      <EmployeeID>19</EmployeeID>
      <Date>2010-01-28</Date>
    </DayOff>
    <DayOff weight="1">
      <EmployeeID>19</EmployeeID>
      <Date>2010-01-07</Date>
    </DayOff>
    <DayOff weight="1">
      <EmployeeID>19</EmployeeID>
      <Date>2010-01-13</Date>
    </DayOff>
    <DayOff weight="1">
      <EmployeeID>19</EmployeeID>
      <Date>2010-01-24</Date>
    </DayOff>
    <DayOff weight="1">
      <EmployeeID>19</EmployeeID>
      <Date>2010-01-13</Date>
    </DayOff>
  </DayOffRequests>
  <ShiftOffRequests>
    <ShiftOff weight="1">
      <ShiftTypeID>L</ShiftTypeID>
      <EmployeeID>0</EmployeeID>
      <Date>2010-01-18</Date>
    </ShiftOff>
    <ShiftOff weight="1">
      <ShiftTypeID>L</ShiftTypeID>
      <EmployeeID>0</EmployeeID>
      <Date>2010-01-26</Date>
    </ShiftOff>
    <ShiftOff weight="1">
      <ShiftTypeID>L</ShiftTypeID>
      <EmployeeID>1</EmployeeID>
      <Date>2010-01-04</Date>
    </ShiftOff>
    <ShiftOff weight="1">
      <ShiftTypeID>E</ShiftTypeID>
      <EmployeeID>1</EmployeeID>
      <Date>2010-01-28</Date>
    </ShiftOff>
    <ShiftOff weight="1">
      <ShiftTypeID>D</ShiftTypeID>
      <EmployeeID>2</EmployeeID>
      <Date>2010-01-25</Date>
    </ShiftOff>
    <ShiftOff weight="1">
      <ShiftTypeID>E</ShiftTypeID>
      <EmployeeID>2</EmployeeID>
      <Date>2010-01-20</Date>
    </ShiftOff>
    <ShiftOff weight="1">
      <ShiftTypeID>E</ShiftTypeID>
      <EmployeeID>3</EmployeeID>
      <Date>2010-01-16</Date>
    </ShiftOff>
    <ShiftOff weight="1">
      <ShiftTypeID>D</ShiftTypeID>
      <EmployeeID>3</EmployeeID>
      <Date>2010-01-01</Date>
    </ShiftOff>
    <ShiftOff weight="1">
      <ShiftTypeID>D</ShiftTypeID>
      <EmployeeID>4</EmployeeID>
      <Date>2010-01-22</Date>
    </ShiftOff>
    <ShiftOff weight="1">
      <ShiftTypeID>E</ShiftTypeID>
      <EmployeeID>4</EmployeeID>
      <Date>2010-01-03</Date>
    </ShiftOff>
    <ShiftOff weight="1">
      <ShiftTypeID>E</ShiftTypeID>
      <EmployeeID>5</EmployeeID>
      <Date>2010-01-27</Date>
    </ShiftOff>
    <ShiftOff weight="1">
      <ShiftTypeID>E</ShiftTypeID>
      <EmployeeID>5</EmployeeID>
      <Date>2010-01-18</Date>
    </ShiftOff>
    <ShiftOff weight="1">
      <ShiftTypeID>D</ShiftTypeID>
      <EmployeeID>6</EmployeeID>
      <Date>2010-01-14</Date>
    </ShiftOff>
    <ShiftOff weight="1">
      <ShiftTypeID>L</ShiftTypeID>
      <EmployeeID>6</EmployeeID>
      <Date>2010-01-11</Date>
    </ShiftOff>
    <ShiftOff weight="1">
      <ShiftTypeID>L</ShiftTypeID>
      <EmployeeID>7</EmployeeID>
      <Date>2010-01-17</Date>
    </ShiftOff>
    <ShiftOff weight="1">
      <ShiftTypeID>D</ShiftTypeID>
      <EmployeeID>7</EmployeeID>
      <Date>2010-01-02</Date>
    </ShiftOff>
    <ShiftOff weight="1">
      <ShiftTypeID>L</ShiftTypeID>
      <EmployeeID>8</EmployeeID>
      <Date>2010-01-22</Date>
    </ShiftOff>
    <ShiftOff weight="1">
      <ShiftTypeID>L</ShiftTypeID>
      <EmployeeID>8</EmployeeID>
      <Date>2010-01-20</Date>
    </ShiftOff>
    <ShiftOff weight="1">
      <ShiftTypeID>D</ShiftTypeID>
      <EmployeeID>9</EmployeeID>
      <Date>2010-01-23</Date>
    </ShiftOff>
    <ShiftOff weight="1">
      <ShiftTypeID>L</ShiftTypeID>
      <EmployeeID>9</EmployeeID>
      <Date>2010-01-13</Date>
    </ShiftOff>
    <ShiftOff weight="1">
      <ShiftTypeID>L</ShiftTypeID>
      <EmployeeID>10</EmployeeID>
      <Date>2010-01-11</Date>
    </ShiftOff>
    <ShiftOff weight="1">
      <ShiftTypeID>L</ShiftTypeID>
      <EmployeeID>10</EmployeeID>
      <Date>2010-01-14</Date>
    </ShiftOff>
    <ShiftOff weight="1">
      <ShiftTypeID>E</ShiftTypeID>
      <EmployeeID>11</EmployeeID>
      <Date>2010-01-16</Date>
    </ShiftOff>
    <ShiftOff weight="1">
      <ShiftTypeID>L</ShiftTypeID>
      <EmployeeID>11</EmployeeID>
      <Date>2010-01-04</Date>
    </ShiftOff>
    <ShiftOff weight="1">
      <ShiftTypeID>L</ShiftTypeID>
      <EmployeeID>12</EmployeeID>
      <Date>2010-01-04</Date>
    </ShiftOff>
    <ShiftOff weight="1">
      <ShiftTypeID>D</ShiftTypeID>
      <EmployeeID>12</EmployeeID>
      <Date>2010-01-11</Date>
    </ShiftOff>
    <ShiftOff weight="1">
      <ShiftTypeID>D</ShiftTypeID>
      <EmployeeID>13</EmployeeID>
      <Date>2010-01-25</Date>
    </ShiftOff>
    <ShiftOff weight="1">
      <ShiftTypeID>L</ShiftTypeID>
      <EmployeeID>13</EmployeeID>
      <Date>2010-01-07</Date>
    </ShiftOff>
    <ShiftOff weight="1">
      <ShiftTypeID>E</ShiftTypeID>
      <EmployeeID>14</EmployeeID>
      <Date>2010-01-05</Date>
    </ShiftOff>
    <ShiftOff weight="1">
      <ShiftTypeID>E</ShiftTypeID>
      <EmployeeID>14</EmployeeID>
      <Date>2010-01-13</Date>
    </ShiftOff>
    <ShiftOff weight="1">
      <ShiftTypeID>L</ShiftTypeID>
      <EmployeeID>15</EmployeeID>
      <Date>2010-01-06</Date>
    </ShiftOff>
    <ShiftOff weight="1">
      <ShiftTypeID>E</ShiftTypeID>
      <EmployeeID>15</EmployeeID>
      <Date>2010-01-03</Date>
    </ShiftOff>
    <ShiftOff weight="1">
      <ShiftTypeID>L</ShiftTypeID>
      <EmployeeID>16</EmployeeID>
      <Date>2010-01-18</Date>
    </ShiftOff>
    <ShiftOff weight="1">
      <ShiftTypeID>D</ShiftTypeID>
      <EmployeeID>16</EmployeeID>
      <Date>2010-01-12</Date>
    </ShiftOff>
    <ShiftOff weight="1">
      <ShiftTypeID>E</ShiftTypeID>
      <EmployeeID>17</EmployeeID>
      <Date>2010-01-09</Date>
    </ShiftOff>
    <ShiftOff weight="1">
      <ShiftTypeID>L</ShiftTypeID>
      <EmployeeID>17</EmployeeID>
      <Date>2010-01-02</Date>
    </ShiftOff>
    <ShiftOff weight="1">
      <ShiftTypeID>E</ShiftTypeID>
      <EmployeeID>18</EmployeeID>
      <Date>2010-01-14</Date>
    </ShiftOff>
    <ShiftOff weight="1">
      <ShiftTypeID>E</ShiftTypeID>
      <EmployeeID>18</EmployeeID>
      <Date>2010-01-28</Date>
    </ShiftOff>
    <ShiftOff weight="1">
      <ShiftTypeID>D</ShiftTypeID>
      <EmployeeID>19</EmployeeID>
      <Date>2010-01-17</Date>
    </ShiftOff>
    <ShiftOff weight="1">
      <ShiftTypeID>L</ShiftTypeID>
      <EmployeeID>19</EmployeeID>
      <Date>2010-01-03</Date>
    </ShiftOff>
  </ShiftOffRequests>
</SchedulingPeriod>